language ESSENCE' 1.0

letting n be 12
letting sizeS be 10
letting SGS_FunctionND be
        [[0, 1, 2, 3, 4, 5, 6, 7, 8, 9, 11, 10; int(0..11)], [0, 1, 2, 3, 4, 5, 6, 7, 8, 11, 11, 9; int(0..11)],
         [0, 1, 2, 3, 4, 5, 6, 7, 11, 11, 11, 8; int(0..11)], [0, 1, 2, 3, 4, 5, 6, 11, 11, 11, 11, 7; int(0..11)],
         [0, 1, 2, 3, 4, 5, 11, 11, 11, 11, 11, 6; int(0..11)], [0, 1, 2, 3, 4, 11, 11, 11, 11, 11, 11, 5; int(0..11)],
         [0, 1, 2, 3, 11, 11, 11, 11, 11, 11, 11, 4; int(0..11)],
         [0, 1, 2, 11, 11, 11, 11, 11, 11, 11, 11, 3; int(0..11)],
         [0, 1, 11, 11, 11, 11, 11, 11, 11, 11, 11, 2; int(0..11)],
         [0, 11, 11, 11, 11, 11, 11, 11, 11, 11, 11, 1; int(0..11)],
         [11, 11, 11, 11, 11, 11, 11, 11, 11, 11, 11, 0; int(0..11)];
             int(0..10)]
$ Visualisation for SGS_FunctionND
$  0  1  2  3  4  5  6  7  8  9 11 10
$  0  1  2  3  4  5  6  7  8 11 11  9
$  0  1  2  3  4  5  6  7 11 11 11  8
$  0  1  2  3  4  5  6 11 11 11 11  7
$  0  1  2  3  4  5 11 11 11 11 11  6
$  0  1  2  3  4 11 11 11 11 11 11  5
$  0  1  2  3 11 11 11 11 11 11 11  4
$  0  1  2 11 11 11 11 11 11 11 11  3
$  0  1 11 11 11 11 11 11 11 11 11  2
$  0 11 11 11 11 11 11 11 11 11 11  1
$ 11 11 11 11 11 11 11 11 11 11 11  0

letting fin1 be 132
